p tw 45 99
0 1
0 4
0 9
0 11
0 5
0 2
0 7
0 31
0 8
1 2
1 7
1 11
1 4
1 5
1 16
1 9
1 8
2 3
2 9
2 5
2 8
2 4
2 7
2 11
3 21
3 22
3 23
4 5
4 10
4 9
4 7
4 11
4 8
5 8
5 11
5 24
5 9
5 7
6 7
6 18
6 19
6 20
7 9
7 8
7 11
8 9
8 11
8 37
9 12
9 11
10 28
10 29
10 30
11 13
12 32
12 33
12 34
13 39
13 40
13 41
14 15
14 16
14 17
15 16
15 17
16 17
18 19
18 20
19 20
21 22
21 23
22 23
24 25
24 26
24 27
25 26
25 27
26 27
28 29
28 30
29 30
31 42
31 43
31 44
32 33
32 34
33 34
35 36
35 37
35 38
36 37
36 38
37 38
39 40
39 41
40 41
42 43
42 44
43 44
